Version identifier: 12.10.0.0 | 2019-11-26 | 843d4de
CPXPARAM_WorkMem                                 28672
Tried aggregator 2 times.
Aggregator did 30 substitutions.
Reduced MIP has 103 rows, 120 columns, and 462 nonzeros.
Reduced MIP has 120 binaries, 0 generals, 0 SOSs, and 0 indicators.
Presolve time = 0,00 sec. (0,44 ticks)
Found incumbent of value 546,000000 after 0,00 sec. (0,72 ticks)
Probing time = 0,00 sec. (0,16 ticks)
Tried aggregator 1 time.
Detecting symmetries...
MIP Presolve eliminated 30 rows and 0 columns.
MIP Presolve added 60 rows and 0 columns.
Reduced MIP has 133 rows, 120 columns, and 492 nonzeros.
Reduced MIP has 120 binaries, 0 generals, 0 SOSs, and 0 indicators.
Presolve time = 0,00 sec. (0,61 ticks)
Probing time = 0,00 sec. (0,15 ticks)
Clique table members: 322.
MIP emphasis: balance optimality and feasibility.
MIP search method: dynamic search.
Parallel mode: deterministic, using up to 16 threads.
Root relaxation solution time = 0,00 sec. (0,35 ticks)

        Nodes                                         Cuts/
   Node  Left     Objective  IInf  Best Integer    Best Bound    ItCnt     Gap

*     0+    0                          546,0000        0,0000           100,00%
*     0+    0                          309,0000        0,0000           100,00%
*     0+    0                          302,0000        0,0000           100,00%
      0     0      182,0000    76      302,0000      182,0000       51   39,74%
      0     0      182,0000    76      302,0000      Cuts: 90      101   39,74%
      0     0      182,5625    76      302,0000      Cuts: 40      123   39,55%
      0     0      182,8889    76      302,0000      Cuts: 82      127   39,44%
      0     0      182,8889    76      302,0000       Cuts: 9      133   39,44%
*     0+    0                          287,0000      182,8889            36,28%
      0     2      206,9186    72      287,0000      210,4889      182   26,66%
Elapsed time = 0,06 sec. (18,25 ticks, tree = 0,02 MB, solutions = 4)

Clique cuts applied:  33
Cover cuts applied:  33
Implied bound cuts applied:  4
Zero-half cuts applied:  9
Gomory fractional cuts applied:  1

Root node processing (before b&c):
  Real time             =    0,06 sec. (18,16 ticks)
Parallel b&c, 16 threads:
  Real time             =    0,01 sec. (2,76 ticks)
  Sync time (average)   =    0,01 sec.
  Wait time (average)   =    0,00 sec.
                          ------------
Total (root+branch&cut) =    0,07 sec. (20,91 ticks)
